8
2147483647 60 51 61 23 68 62 10 
60 2147483647 77 62 93 49 19 84 
51 77 2147483647 26 7 48 51 56 
61 62 26 2147483647 48 15 6 51 
23 93 7 48 2147483647 29 14 76 
68 49 48 15 29 2147483647 19 97 
62 19 51 6 14 19 2147483647 75 
10 84 56 51 76 97 75 2147483647 
